100 8
48 323
562 780
695 152
510 832
34 382
945 636
649 211
787 383
600 67
471 840
470 578
410 366
375 328
302 123
465 423
837 502
395 360
679 139
562 182
739 326
402 97
788 658
602 72
873 232
627 429
179 285
185 335
477 824
513 852
376 406
515 432
838 203
622 417
457 842
764 161
516 824
631 444
388 149
969 717
565 51
357 381
641 18
419 336
541 771
639 46
416 382
918 596
710 294
354 898
557 781
769 498
867 547
698 15
375 261
639 164
184 243
586 729
774 490
791 306
123 304
534 800
855 396
523 532
410 788
376 471
834 355
51 375
349 188
659 359
592 809
930 420
674 181
728 332
627 366
801 194
165 982
773 515
311 133
797 453
580 801
753 377
833 385
769 178
434 372
861 670
530 696
386 541
507 53
456 217
325 128
739 166
453 232
901 242
353 493
456 940
416 271
189 838
406 106
555 97
515 53
